db/data/399149215470286483789264011869729734.z3.out
-------------------
2500.101677631
